p cnf 319 1436
-2 0
-3 0
-4 0
1 0
29 5 0
-29 -5 0
-5 0
-6 0
-7 0
8 0
4 12 36 0
-4 -12 0
-4 -36 0
-12 -36 0
9 10 11 12 0
-9 197 0
-10 198 0
-197 198 0
-197 -10 0
-11 199 0
-198 199 0
-198 -11 0
-199 -12 0
-9 5 13 0
-9 5 37 0
-9 13 37 0
-10 6 14 0
-10 6 38 0
-10 14 38 0
-11 7 15 0
-11 7 39 0
-11 15 39 0
-12 8 16 0
-12 8 40 0
-12 16 40 0
-9 -5 -13 -37 0
-10 -6 -14 -38 0
-11 -7 -15 -39 0
-12 -8 -16 -40 0
13 14 15 16 0
-13 200 0
-14 201 0
-200 201 0
-200 -14 0
-15 202 0
-201 202 0
-201 -15 0
-202 -16 0
-13 9 17 0
-13 9 41 0
-13 17 41 0
-14 10 18 0
-14 10 42 0
-14 18 42 0
-15 11 19 0
-15 11 43 0
-15 19 43 0
-16 12 20 0
-16 12 44 0
-16 20 44 0
-13 -9 -17 -41 0
-14 -10 -18 -42 0
-15 -11 -19 -43 0
-16 -12 -20 -44 0
17 18 19 20 0
-17 203 0
-18 204 0
-203 204 0
-203 -18 0
-19 205 0
-204 205 0
-204 -19 0
-205 -20 0
-17 13 21 0
-17 13 45 0
-17 21 45 0
-18 14 22 0
-18 14 46 0
-18 22 46 0
-19 15 23 0
-19 15 47 0
-19 23 47 0
-20 16 24 0
-20 16 48 0
-20 24 48 0
-17 -13 -21 -45 0
-18 -14 -22 -46 0
-19 -15 -23 -47 0
-20 -16 -24 -48 0
21 22 23 24 0
-21 206 0
-22 207 0
-206 207 0
-206 -22 0
-23 208 0
-207 208 0
-207 -23 0
-208 -24 0
-21 17 25 0
-21 17 49 0
-21 25 49 0
-22 18 26 0
-22 18 50 0
-22 26 50 0
-23 19 27 0
-23 19 51 0
-23 27 51 0
-24 20 28 0
-24 20 52 0
-24 28 52 0
-21 -17 -25 -49 0
-22 -18 -26 -50 0
-23 -19 -27 -51 0
-24 -20 -28 -52 0
25 26 27 28 0
-25 209 0
-26 210 0
-209 210 0
-209 -26 0
-27 211 0
-210 211 0
-210 -27 0
-211 -28 0
-25 53 0
-25 21 0
-26 54 0
-26 22 0
-27 55 0
-27 23 0
-28 56 0
-28 24 0
29 30 31 32 0
-29 212 0
-30 213 0
-212 213 0
-212 -30 0
-31 214 0
-213 214 0
-213 -31 0
-214 -32 0
-29 57 33 0
-29 57 1 0
-29 33 1 0
-30 58 34 0
-30 58 2 0
-30 34 2 0
-31 59 35 0
-31 59 3 0
-31 35 3 0
-32 60 36 0
-32 60 4 0
-32 36 4 0
-29 -57 -33 -1 0
-30 -58 -34 -2 0
-31 -59 -35 -3 0
-32 -60 -36 -4 0
33 34 35 36 0
-33 215 0
-34 216 0
-215 216 0
-215 -34 0
-35 217 0
-216 217 0
-216 -35 0
-217 -36 0
-33 61 37 5 0
-33 61 37 29 0
-33 61 5 29 0
-33 37 5 29 0
-34 62 38 6 0
-34 62 38 30 0
-34 62 6 30 0
-34 38 6 30 0
-35 63 39 7 0
-35 63 39 31 0
-35 63 7 31 0
-35 39 7 31 0
-36 64 40 8 0
-36 64 40 32 0
-36 64 8 32 0
-36 40 8 32 0
-33 -61 -37 -5 0
-33 -61 -37 -29 0
-33 -61 -5 -29 0
-33 -37 -5 -29 0
-34 -62 -38 -6 0
-34 -62 -38 -30 0
-34 -62 -6 -30 0
-34 -38 -6 -30 0
-35 -63 -39 -7 0
-35 -63 -39 -31 0
-35 -63 -7 -31 0
-35 -39 -7 -31 0
-36 -64 -40 -8 0
-36 -64 -40 -32 0
-36 -64 -8 -32 0
-36 -40 -8 -32 0
37 38 39 40 0
-37 218 0
-38 219 0
-218 219 0
-218 -38 0
-39 220 0
-219 220 0
-219 -39 0
-220 -40 0
-37 65 41 9 0
-37 65 41 33 0
-37 65 9 33 0
-37 41 9 33 0
-38 66 42 10 0
-38 66 42 34 0
-38 66 10 34 0
-38 42 10 34 0
-39 67 43 11 0
-39 67 43 35 0
-39 67 11 35 0
-39 43 11 35 0
-40 68 44 12 0
-40 68 44 36 0
-40 68 12 36 0
-40 44 12 36 0
-37 -65 -41 -9 0
-37 -65 -41 -33 0
-37 -65 -9 -33 0
-37 -41 -9 -33 0
-38 -66 -42 -10 0
-38 -66 -42 -34 0
-38 -66 -10 -34 0
-38 -42 -10 -34 0
-39 -67 -43 -11 0
-39 -67 -43 -35 0
-39 -67 -11 -35 0
-39 -43 -11 -35 0
-40 -68 -44 -12 0
-40 -68 -44 -36 0
-40 -68 -12 -36 0
-40 -44 -12 -36 0
41 42 43 44 0
-41 221 0
-42 222 0
-221 222 0
-221 -42 0
-43 223 0
-222 223 0
-222 -43 0
-223 -44 0
-41 69 45 13 0
-41 69 45 37 0
-41 69 13 37 0
-41 45 13 37 0
-42 70 46 14 0
-42 70 46 38 0
-42 70 14 38 0
-42 46 14 38 0
-43 71 47 15 0
-43 71 47 39 0
-43 71 15 39 0
-43 47 15 39 0
-44 72 48 16 0
-44 72 48 40 0
-44 72 16 40 0
-44 48 16 40 0
-41 -69 -45 -13 0
-41 -69 -45 -37 0
-41 -69 -13 -37 0
-41 -45 -13 -37 0
-42 -70 -46 -14 0
-42 -70 -46 -38 0
-42 -70 -14 -38 0
-42 -46 -14 -38 0
-43 -71 -47 -15 0
-43 -71 -47 -39 0
-43 -71 -15 -39 0
-43 -47 -15 -39 0
-44 -72 -48 -16 0
-44 -72 -48 -40 0
-44 -72 -16 -40 0
-44 -48 -16 -40 0
45 46 47 48 0
-45 224 0
-46 225 0
-224 225 0
-224 -46 0
-47 226 0
-225 226 0
-225 -47 0
-226 -48 0
-45 73 49 17 0
-45 73 49 41 0
-45 73 17 41 0
-45 49 17 41 0
-46 74 50 18 0
-46 74 50 42 0
-46 74 18 42 0
-46 50 18 42 0
-47 75 51 19 0
-47 75 51 43 0
-47 75 19 43 0
-47 51 19 43 0
-48 76 52 20 0
-48 76 52 44 0
-48 76 20 44 0
-48 52 20 44 0
-45 -73 -49 -17 0
-45 -73 -49 -41 0
-45 -73 -17 -41 0
-45 -49 -17 -41 0
-46 -74 -50 -18 0
-46 -74 -50 -42 0
-46 -74 -18 -42 0
-46 -50 -18 -42 0
-47 -75 -51 -19 0
-47 -75 -51 -43 0
-47 -75 -19 -43 0
-47 -51 -19 -43 0
-48 -76 -52 -20 0
-48 -76 -52 -44 0
-48 -76 -20 -44 0
-48 -52 -20 -44 0
-49 0
-50 0
-52 0
51 0
79 55 23 47 0
-79 -55 0
-79 -23 0
-79 -47 0
-55 -23 0
-55 -47 0
-23 -47 0
53 54 55 56 0
-53 227 0
-54 228 0
-227 228 0
-227 -54 0
-55 229 0
-228 229 0
-228 -55 0
-229 -56 0
-53 81 49 0
-53 81 25 0
-53 49 25 0
-54 82 50 0
-54 82 26 0
-54 50 26 0
-55 83 51 0
-55 83 27 0
-55 51 27 0
-56 84 52 0
-56 84 28 0
-56 52 28 0
-53 -81 -49 -25 0
-54 -82 -50 -26 0
-55 -83 -51 -27 0
-56 -84 -52 -28 0
57 58 59 60 0
-57 230 0
-58 231 0
-230 231 0
-230 -58 0
-59 232 0
-231 232 0
-231 -59 0
-232 -60 0
-57 85 61 0
-57 85 29 0
-57 61 29 0
-58 86 62 0
-58 86 30 0
-58 62 30 0
-59 87 63 0
-59 87 31 0
-59 63 31 0
-60 88 64 0
-60 88 32 0
-60 64 32 0
-57 -85 -61 -29 0
-58 -86 -62 -30 0
-59 -87 -63 -31 0
-60 -88 -64 -32 0
61 62 63 64 0
-61 233 0
-62 234 0
-233 234 0
-233 -62 0
-63 235 0
-234 235 0
-234 -63 0
-235 -64 0
-61 89 65 33 0
-61 89 65 57 0
-61 89 33 57 0
-61 65 33 57 0
-62 90 66 34 0
-62 90 66 58 0
-62 90 34 58 0
-62 66 34 58 0
-63 91 67 35 0
-63 91 67 59 0
-63 91 35 59 0
-63 67 35 59 0
-64 92 68 36 0
-64 92 68 60 0
-64 92 36 60 0
-64 68 36 60 0
-61 -89 -65 -33 0
-61 -89 -65 -57 0
-61 -89 -33 -57 0
-61 -65 -33 -57 0
-62 -90 -66 -34 0
-62 -90 -66 -58 0
-62 -90 -34 -58 0
-62 -66 -34 -58 0
-63 -91 -67 -35 0
-63 -91 -67 -59 0
-63 -91 -35 -59 0
-63 -67 -35 -59 0
-64 -92 -68 -36 0
-64 -92 -68 -60 0
-64 -92 -36 -60 0
-64 -68 -36 -60 0
65 66 67 68 0
-65 236 0
-66 237 0
-236 237 0
-236 -66 0
-67 238 0
-237 238 0
-237 -67 0
-238 -68 0
-65 93 69 37 0
-65 93 69 61 0
-65 93 37 61 0
-65 69 37 61 0
-66 94 70 38 0
-66 94 70 62 0
-66 94 38 62 0
-66 70 38 62 0
-67 95 71 39 0
-67 95 71 63 0
-67 95 39 63 0
-67 71 39 63 0
-68 96 72 40 0
-68 96 72 64 0
-68 96 40 64 0
-68 72 40 64 0
-65 -93 -69 -37 0
-65 -93 -69 -61 0
-65 -93 -37 -61 0
-65 -69 -37 -61 0
-66 -94 -70 -38 0
-66 -94 -70 -62 0
-66 -94 -38 -62 0
-66 -70 -38 -62 0
-67 -95 -71 -39 0
-67 -95 -71 -63 0
-67 -95 -39 -63 0
-67 -71 -39 -63 0
-68 -96 -72 -40 0
-68 -96 -72 -64 0
-68 -96 -40 -64 0
-68 -72 -40 -64 0
-69 0
-71 0
-72 0
70 0
98 74 42 66 0
-98 -74 0
-98 -42 0
-98 -66 0
-74 -42 0
-74 -66 0
-42 -66 0
73 74 75 76 0
-73 239 0
-74 240 0
-239 240 0
-239 -74 0
-75 241 0
-240 241 0
-240 -75 0
-241 -76 0
-73 101 77 45 0
-73 101 77 69 0
-73 101 45 69 0
-73 77 45 69 0
-74 102 78 46 0
-74 102 78 70 0
-74 102 46 70 0
-74 78 46 70 0
-75 103 79 47 0
-75 103 79 71 0
-75 103 47 71 0
-75 79 47 71 0
-76 104 80 48 0
-76 104 80 72 0
-76 104 48 72 0
-76 80 48 72 0
-73 -101 -77 -45 0
-73 -101 -77 -69 0
-73 -101 -45 -69 0
-73 -77 -45 -69 0
-74 -102 -78 -46 0
-74 -102 -78 -70 0
-74 -102 -46 -70 0
-74 -78 -46 -70 0
-75 -103 -79 -47 0
-75 -103 -79 -71 0
-75 -103 -47 -71 0
-75 -79 -47 -71 0
-76 -104 -80 -48 0
-76 -104 -80 -72 0
-76 -104 -48 -72 0
-76 -80 -48 -72 0
77 78 79 80 0
-77 242 0
-78 243 0
-242 243 0
-242 -78 0
-79 244 0
-243 244 0
-243 -79 0
-244 -80 0
-77 105 81 49 0
-77 105 81 73 0
-77 105 49 73 0
-77 81 49 73 0
-78 106 82 50 0
-78 106 82 74 0
-78 106 50 74 0
-78 82 50 74 0
-79 107 83 51 0
-79 107 83 75 0
-79 107 51 75 0
-79 83 51 75 0
-80 108 84 52 0
-80 108 84 76 0
-80 108 52 76 0
-80 84 52 76 0
-77 -105 -81 -49 0
-77 -105 -81 -73 0
-77 -105 -49 -73 0
-77 -81 -49 -73 0
-78 -106 -82 -50 0
-78 -106 -82 -74 0
-78 -106 -50 -74 0
-78 -82 -50 -74 0
-79 -107 -83 -51 0
-79 -107 -83 -75 0
-79 -107 -51 -75 0
-79 -83 -51 -75 0
-80 -108 -84 -52 0
-80 -108 -84 -76 0
-80 -108 -52 -76 0
-80 -84 -52 -76 0
81 82 83 84 0
-81 245 0
-82 246 0
-245 246 0
-245 -82 0
-83 247 0
-246 247 0
-246 -83 0
-247 -84 0
-81 109 77 0
-81 109 53 0
-81 77 53 0
-82 110 78 0
-82 110 54 0
-82 78 54 0
-83 111 79 0
-83 111 55 0
-83 79 55 0
-84 112 80 0
-84 112 56 0
-84 80 56 0
-81 -109 -77 -53 0
-82 -110 -78 -54 0
-83 -111 -79 -55 0
-84 -112 -80 -56 0
85 86 87 88 0
-85 248 0
-86 249 0
-248 249 0
-248 -86 0
-87 250 0
-249 250 0
-249 -87 0
-250 -88 0
-85 113 89 0
-85 113 57 0
-85 89 57 0
-86 114 90 0
-86 114 58 0
-86 90 58 0
-87 115 91 0
-87 115 59 0
-87 91 59 0
-88 116 92 0
-88 116 60 0
-88 92 60 0
-85 -113 -89 -57 0
-86 -114 -90 -58 0
-87 -115 -91 -59 0
-88 -116 -92 -60 0
89 90 91 92 0
-89 251 0
-90 252 0
-251 252 0
-251 -90 0
-91 253 0
-252 253 0
-252 -91 0
-253 -92 0
-89 117 93 61 0
-89 117 93 85 0
-89 117 61 85 0
-89 93 61 85 0
-90 118 94 62 0
-90 118 94 86 0
-90 118 62 86 0
-90 94 62 86 0
-91 119 95 63 0
-91 119 95 87 0
-91 119 63 87 0
-91 95 63 87 0
-92 120 96 64 0
-92 120 96 88 0
-92 120 64 88 0
-92 96 64 88 0
-89 -117 -93 -61 0
-89 -117 -93 -85 0
-89 -117 -61 -85 0
-89 -93 -61 -85 0
-90 -118 -94 -62 0
-90 -118 -94 -86 0
-90 -118 -62 -86 0
-90 -94 -62 -86 0
-91 -119 -95 -63 0
-91 -119 -95 -87 0
-91 -119 -63 -87 0
-91 -95 -63 -87 0
-92 -120 -96 -64 0
-92 -120 -96 -88 0
-92 -120 -64 -88 0
-92 -96 -64 -88 0
93 94 95 96 0
-93 254 0
-94 255 0
-254 255 0
-254 -94 0
-95 256 0
-255 256 0
-255 -95 0
-256 -96 0
-93 121 97 65 0
-93 121 97 89 0
-93 121 65 89 0
-93 97 65 89 0
-94 122 98 66 0
-94 122 98 90 0
-94 122 66 90 0
-94 98 66 90 0
-95 123 99 67 0
-95 123 99 91 0
-95 123 67 91 0
-95 99 67 91 0
-96 124 100 68 0
-96 124 100 92 0
-96 124 68 92 0
-96 100 68 92 0
-93 -121 -97 -65 0
-93 -121 -97 -89 0
-93 -121 -65 -89 0
-93 -97 -65 -89 0
-94 -122 -98 -66 0
-94 -122 -98 -90 0
-94 -122 -66 -90 0
-94 -98 -66 -90 0
-95 -123 -99 -67 0
-95 -123 -99 -91 0
-95 -123 -67 -91 0
-95 -99 -67 -91 0
-96 -124 -100 -68 0
-96 -124 -100 -92 0
-96 -124 -68 -92 0
-96 -100 -68 -92 0
97 98 99 100 0
-97 257 0
-98 258 0
-257 258 0
-257 -98 0
-99 259 0
-258 259 0
-258 -99 0
-259 -100 0
-97 125 101 69 0
-97 125 101 93 0
-97 125 69 93 0
-97 101 69 93 0
-98 126 102 70 0
-98 126 102 94 0
-98 126 70 94 0
-98 102 70 94 0
-99 127 103 71 0
-99 127 103 95 0
-99 127 71 95 0
-99 103 71 95 0
-100 128 104 72 0
-100 128 104 96 0
-100 128 72 96 0
-100 104 72 96 0
-97 -125 -101 -69 0
-97 -125 -101 -93 0
-97 -125 -69 -93 0
-97 -101 -69 -93 0
-98 -126 -102 -70 0
-98 -126 -102 -94 0
-98 -126 -70 -94 0
-98 -102 -70 -94 0
-99 -127 -103 -71 0
-99 -127 -103 -95 0
-99 -127 -71 -95 0
-99 -103 -71 -95 0
-100 -128 -104 -72 0
-100 -128 -104 -96 0
-100 -128 -72 -96 0
-100 -104 -72 -96 0
101 102 103 104 0
-101 260 0
-102 261 0
-260 261 0
-260 -102 0
-103 262 0
-261 262 0
-261 -103 0
-262 -104 0
-101 129 105 73 0
-101 129 105 97 0
-101 129 73 97 0
-101 105 73 97 0
-102 130 106 74 0
-102 130 106 98 0
-102 130 74 98 0
-102 106 74 98 0
-103 131 107 75 0
-103 131 107 99 0
-103 131 75 99 0
-103 107 75 99 0
-104 132 108 76 0
-104 132 108 100 0
-104 132 76 100 0
-104 108 76 100 0
-101 -129 -105 -73 0
-101 -129 -105 -97 0
-101 -129 -73 -97 0
-101 -105 -73 -97 0
-102 -130 -106 -74 0
-102 -130 -106 -98 0
-102 -130 -74 -98 0
-102 -106 -74 -98 0
-103 -131 -107 -75 0
-103 -131 -107 -99 0
-103 -131 -75 -99 0
-103 -107 -75 -99 0
-104 -132 -108 -76 0
-104 -132 -108 -100 0
-104 -132 -76 -100 0
-104 -108 -76 -100 0
105 106 107 108 0
-105 263 0
-106 264 0
-263 264 0
-263 -106 0
-107 265 0
-264 265 0
-264 -107 0
-265 -108 0
-105 133 109 77 0
-105 133 109 101 0
-105 133 77 101 0
-105 109 77 101 0
-106 134 110 78 0
-106 134 110 102 0
-106 134 78 102 0
-106 110 78 102 0
-107 135 111 79 0
-107 135 111 103 0
-107 135 79 103 0
-107 111 79 103 0
-108 136 112 80 0
-108 136 112 104 0
-108 136 80 104 0
-108 112 80 104 0
-105 -133 -109 -77 0
-105 -133 -109 -101 0
-105 -133 -77 -101 0
-105 -109 -77 -101 0
-106 -134 -110 -78 0
-106 -134 -110 -102 0
-106 -134 -78 -102 0
-106 -110 -78 -102 0
-107 -135 -111 -79 0
-107 -135 -111 -103 0
-107 -135 -79 -103 0
-107 -111 -79 -103 0
-108 -136 -112 -80 0
-108 -136 -112 -104 0
-108 -136 -80 -104 0
-108 -112 -80 -104 0
109 110 111 112 0
-109 266 0
-110 267 0
-266 267 0
-266 -110 0
-111 268 0
-267 268 0
-267 -111 0
-268 -112 0
-109 137 105 0
-109 137 81 0
-109 105 81 0
-110 138 106 0
-110 138 82 0
-110 106 82 0
-111 139 107 0
-111 139 83 0
-111 107 83 0
-112 140 108 0
-112 140 84 0
-112 108 84 0
-109 -137 -105 -81 0
-110 -138 -106 -82 0
-111 -139 -107 -83 0
-112 -140 -108 -84 0
113 114 115 116 0
-113 269 0
-114 270 0
-269 270 0
-269 -114 0
-115 271 0
-270 271 0
-270 -115 0
-271 -116 0
-113 141 117 0
-113 141 85 0
-113 117 85 0
-114 142 118 0
-114 142 86 0
-114 118 86 0
-115 143 119 0
-115 143 87 0
-115 119 87 0
-116 144 120 0
-116 144 88 0
-116 120 88 0
-113 -141 -117 -85 0
-114 -142 -118 -86 0
-115 -143 -119 -87 0
-116 -144 -120 -88 0
117 118 119 120 0
-117 272 0
-118 273 0
-272 273 0
-272 -118 0
-119 274 0
-273 274 0
-273 -119 0
-274 -120 0
-117 145 121 89 0
-117 145 121 113 0
-117 145 89 113 0
-117 121 89 113 0
-118 146 122 90 0
-118 146 122 114 0
-118 146 90 114 0
-118 122 90 114 0
-119 147 123 91 0
-119 147 123 115 0
-119 147 91 115 0
-119 123 91 115 0
-120 148 124 92 0
-120 148 124 116 0
-120 148 92 116 0
-120 124 92 116 0
-117 -145 -121 -89 0
-117 -145 -121 -113 0
-117 -145 -89 -113 0
-117 -121 -89 -113 0
-118 -146 -122 -90 0
-118 -146 -122 -114 0
-118 -146 -90 -114 0
-118 -122 -90 -114 0
-119 -147 -123 -91 0
-119 -147 -123 -115 0
-119 -147 -91 -115 0
-119 -123 -91 -115 0
-120 -148 -124 -92 0
-120 -148 -124 -116 0
-120 -148 -92 -116 0
-120 -124 -92 -116 0
121 122 123 124 0
-121 275 0
-122 276 0
-275 276 0
-275 -122 0
-123 277 0
-276 277 0
-276 -123 0
-277 -124 0
-121 149 125 93 0
-121 149 125 117 0
-121 149 93 117 0
-121 125 93 117 0
-122 150 126 94 0
-122 150 126 118 0
-122 150 94 118 0
-122 126 94 118 0
-123 151 127 95 0
-123 151 127 119 0
-123 151 95 119 0
-123 127 95 119 0
-124 152 128 96 0
-124 152 128 120 0
-124 152 96 120 0
-124 128 96 120 0
-121 -149 -125 -93 0
-121 -149 -125 -117 0
-121 -149 -93 -117 0
-121 -125 -93 -117 0
-122 -150 -126 -94 0
-122 -150 -126 -118 0
-122 -150 -94 -118 0
-122 -126 -94 -118 0
-123 -151 -127 -95 0
-123 -151 -127 -119 0
-123 -151 -95 -119 0
-123 -127 -95 -119 0
-124 -152 -128 -96 0
-124 -152 -128 -120 0
-124 -152 -96 -120 0
-124 -128 -96 -120 0
125 126 127 128 0
-125 278 0
-126 279 0
-278 279 0
-278 -126 0
-127 280 0
-279 280 0
-279 -127 0
-280 -128 0
-125 153 129 97 0
-125 153 129 121 0
-125 153 97 121 0
-125 129 97 121 0
-126 154 130 98 0
-126 154 130 122 0
-126 154 98 122 0
-126 130 98 122 0
-127 155 131 99 0
-127 155 131 123 0
-127 155 99 123 0
-127 131 99 123 0
-128 156 132 100 0
-128 156 132 124 0
-128 156 100 124 0
-128 132 100 124 0
-125 -153 -129 -97 0
-125 -153 -129 -121 0
-125 -153 -97 -121 0
-125 -129 -97 -121 0
-126 -154 -130 -98 0
-126 -154 -130 -122 0
-126 -154 -98 -122 0
-126 -130 -98 -122 0
-127 -155 -131 -99 0
-127 -155 -131 -123 0
-127 -155 -99 -123 0
-127 -131 -99 -123 0
-128 -156 -132 -100 0
-128 -156 -132 -124 0
-128 -156 -100 -124 0
-128 -132 -100 -124 0
129 130 131 132 0
-129 281 0
-130 282 0
-281 282 0
-281 -130 0
-131 283 0
-282 283 0
-282 -131 0
-283 -132 0
-129 157 133 101 0
-129 157 133 125 0
-129 157 101 125 0
-129 133 101 125 0
-130 158 134 102 0
-130 158 134 126 0
-130 158 102 126 0
-130 134 102 126 0
-131 159 135 103 0
-131 159 135 127 0
-131 159 103 127 0
-131 135 103 127 0
-132 160 136 104 0
-132 160 136 128 0
-132 160 104 128 0
-132 136 104 128 0
-129 -157 -133 -101 0
-129 -157 -133 -125 0
-129 -157 -101 -125 0
-129 -133 -101 -125 0
-130 -158 -134 -102 0
-130 -158 -134 -126 0
-130 -158 -102 -126 0
-130 -134 -102 -126 0
-131 -159 -135 -103 0
-131 -159 -135 -127 0
-131 -159 -103 -127 0
-131 -135 -103 -127 0
-132 -160 -136 -104 0
-132 -160 -136 -128 0
-132 -160 -104 -128 0
-132 -136 -104 -128 0
133 134 135 136 0
-133 284 0
-134 285 0
-284 285 0
-284 -134 0
-135 286 0
-285 286 0
-285 -135 0
-286 -136 0
-133 161 137 105 0
-133 161 137 129 0
-133 161 105 129 0
-133 137 105 129 0
-134 162 138 106 0
-134 162 138 130 0
-134 162 106 130 0
-134 138 106 130 0
-135 163 139 107 0
-135 163 139 131 0
-135 163 107 131 0
-135 139 107 131 0
-136 164 140 108 0
-136 164 140 132 0
-136 164 108 132 0
-136 140 108 132 0
-133 -161 -137 -105 0
-133 -161 -137 -129 0
-133 -161 -105 -129 0
-133 -137 -105 -129 0
-134 -162 -138 -106 0
-134 -162 -138 -130 0
-134 -162 -106 -130 0
-134 -138 -106 -130 0
-135 -163 -139 -107 0
-135 -163 -139 -131 0
-135 -163 -107 -131 0
-135 -139 -107 -131 0
-136 -164 -140 -108 0
-136 -164 -140 -132 0
-136 -164 -108 -132 0
-136 -140 -108 -132 0
137 138 139 140 0
-137 287 0
-138 288 0
-287 288 0
-287 -138 0
-139 289 0
-288 289 0
-288 -139 0
-289 -140 0
-137 165 133 0
-137 165 109 0
-137 133 109 0
-138 166 134 0
-138 166 110 0
-138 134 110 0
-139 167 135 0
-139 167 111 0
-139 135 111 0
-140 168 136 0
-140 168 112 0
-140 136 112 0
-137 -165 -133 -109 0
-138 -166 -134 -110 0
-139 -167 -135 -111 0
-140 -168 -136 -112 0
-141 0
-143 0
-144 0
142 0
170 146 114 0
-170 -146 0
-170 -114 0
-146 -114 0
145 146 147 148 0
-145 290 0
-146 291 0
-290 291 0
-290 -146 0
-147 292 0
-291 292 0
-291 -147 0
-292 -148 0
-145 173 149 117 0
-145 173 149 141 0
-145 173 117 141 0
-145 149 117 141 0
-146 174 150 118 0
-146 174 150 142 0
-146 174 118 142 0
-146 150 118 142 0
-147 175 151 119 0
-147 175 151 143 0
-147 175 119 143 0
-147 151 119 143 0
-148 176 152 120 0
-148 176 152 144 0
-148 176 120 144 0
-148 152 120 144 0
-145 -173 -149 -117 0
-145 -173 -149 -141 0
-145 -173 -117 -141 0
-145 -149 -117 -141 0
-146 -174 -150 -118 0
-146 -174 -150 -142 0
-146 -174 -118 -142 0
-146 -150 -118 -142 0
-147 -175 -151 -119 0
-147 -175 -151 -143 0
-147 -175 -119 -143 0
-147 -151 -119 -143 0
-148 -176 -152 -120 0
-148 -176 -152 -144 0
-148 -176 -120 -144 0
-148 -152 -120 -144 0
149 150 151 152 0
-149 293 0
-150 294 0
-293 294 0
-293 -150 0
-151 295 0
-294 295 0
-294 -151 0
-295 -152 0
-149 177 153 121 0
-149 177 153 145 0
-149 177 121 145 0
-149 153 121 145 0
-150 178 154 122 0
-150 178 154 146 0
-150 178 122 146 0
-150 154 122 146 0
-151 179 155 123 0
-151 179 155 147 0
-151 179 123 147 0
-151 155 123 147 0
-152 180 156 124 0
-152 180 156 148 0
-152 180 124 148 0
-152 156 124 148 0
-149 -177 -153 -121 0
-149 -177 -153 -145 0
-149 -177 -121 -145 0
-149 -153 -121 -145 0
-150 -178 -154 -122 0
-150 -178 -154 -146 0
-150 -178 -122 -146 0
-150 -154 -122 -146 0
-151 -179 -155 -123 0
-151 -179 -155 -147 0
-151 -179 -123 -147 0
-151 -155 -123 -147 0
-152 -180 -156 -124 0
-152 -180 -156 -148 0
-152 -180 -124 -148 0
-152 -156 -124 -148 0
-153 0
-154 0
-155 0
156 0
184 160 128 152 0
-184 -160 0
-184 -128 0
-184 -152 0
-160 -128 0
-160 -152 0
-128 -152 0
157 158 159 160 0
-157 296 0
-158 297 0
-296 297 0
-296 -158 0
-159 298 0
-297 298 0
-297 -159 0
-298 -160 0
-157 185 161 129 0
-157 185 161 153 0
-157 185 129 153 0
-157 161 129 153 0
-158 186 162 130 0
-158 186 162 154 0
-158 186 130 154 0
-158 162 130 154 0
-159 187 163 131 0
-159 187 163 155 0
-159 187 131 155 0
-159 163 131 155 0
-160 188 164 132 0
-160 188 164 156 0
-160 188 132 156 0
-160 164 132 156 0
-157 -185 -161 -129 0
-157 -185 -161 -153 0
-157 -185 -129 -153 0
-157 -161 -129 -153 0
-158 -186 -162 -130 0
-158 -186 -162 -154 0
-158 -186 -130 -154 0
-158 -162 -130 -154 0
-159 -187 -163 -131 0
-159 -187 -163 -155 0
-159 -187 -131 -155 0
-159 -163 -131 -155 0
-160 -188 -164 -132 0
-160 -188 -164 -156 0
-160 -188 -132 -156 0
-160 -164 -132 -156 0
161 162 163 164 0
-161 299 0
-162 300 0
-299 300 0
-299 -162 0
-163 301 0
-300 301 0
-300 -163 0
-301 -164 0
-161 189 165 133 0
-161 189 165 157 0
-161 189 133 157 0
-161 165 133 157 0
-162 190 166 134 0
-162 190 166 158 0
-162 190 134 158 0
-162 166 134 158 0
-163 191 167 135 0
-163 191 167 159 0
-163 191 135 159 0
-163 167 135 159 0
-164 192 168 136 0
-164 192 168 160 0
-164 192 136 160 0
-164 168 136 160 0
-161 -189 -165 -133 0
-161 -189 -165 -157 0
-161 -189 -133 -157 0
-161 -165 -133 -157 0
-162 -190 -166 -134 0
-162 -190 -166 -158 0
-162 -190 -134 -158 0
-162 -166 -134 -158 0
-163 -191 -167 -135 0
-163 -191 -167 -159 0
-163 -191 -135 -159 0
-163 -167 -135 -159 0
-164 -192 -168 -136 0
-164 -192 -168 -160 0
-164 -192 -136 -160 0
-164 -168 -136 -160 0
165 166 167 168 0
-165 302 0
-166 303 0
-302 303 0
-302 -166 0
-167 304 0
-303 304 0
-303 -167 0
-304 -168 0
-165 193 161 0
-165 193 137 0
-165 161 137 0
-166 194 162 0
-166 194 138 0
-166 162 138 0
-167 195 163 0
-167 195 139 0
-167 163 139 0
-168 196 164 0
-168 196 140 0
-168 164 140 0
-165 -193 -161 -137 0
-166 -194 -162 -138 0
-167 -195 -163 -139 0
-168 -196 -164 -140 0
-170 0
-171 0
-172 0
169 0
141 173 0
-141 -173 0
173 174 175 176 0
-173 305 0
-174 306 0
-305 306 0
-305 -174 0
-175 307 0
-306 307 0
-306 -175 0
-307 -176 0
-173 145 177 0
-173 145 169 0
-173 177 169 0
-174 146 178 0
-174 146 170 0
-174 178 170 0
-175 147 179 0
-175 147 171 0
-175 179 171 0
-176 148 180 0
-176 148 172 0
-176 180 172 0
-173 -145 -177 -169 0
-174 -146 -178 -170 0
-175 -147 -179 -171 0
-176 -148 -180 -172 0
177 178 179 180 0
-177 308 0
-178 309 0
-308 309 0
-308 -178 0
-179 310 0
-309 310 0
-309 -179 0
-310 -180 0
-177 149 181 0
-177 149 173 0
-177 181 173 0
-178 150 182 0
-178 150 174 0
-178 182 174 0
-179 151 183 0
-179 151 175 0
-179 183 175 0
-180 152 184 0
-180 152 176 0
-180 184 176 0
-177 -149 -181 -173 0
-178 -150 -182 -174 0
-179 -151 -183 -175 0
-180 -152 -184 -176 0
181 182 183 184 0
-181 311 0
-182 312 0
-311 312 0
-311 -182 0
-183 313 0
-312 313 0
-312 -183 0
-313 -184 0
-181 153 185 0
-181 153 177 0
-181 185 177 0
-182 154 186 0
-182 154 178 0
-182 186 178 0
-183 155 187 0
-183 155 179 0
-183 187 179 0
-184 156 188 0
-184 156 180 0
-184 188 180 0
-181 -153 -185 -177 0
-182 -154 -186 -178 0
-183 -155 -187 -179 0
-184 -156 -188 -180 0
185 186 187 188 0
-185 314 0
-186 315 0
-314 315 0
-314 -186 0
-187 316 0
-315 316 0
-315 -187 0
-316 -188 0
-185 157 189 0
-185 157 181 0
-185 189 181 0
-186 158 190 0
-186 158 182 0
-186 190 182 0
-187 159 191 0
-187 159 183 0
-187 191 183 0
-188 160 192 0
-188 160 184 0
-188 192 184 0
-185 -157 -189 -181 0
-186 -158 -190 -182 0
-187 -159 -191 -183 0
-188 -160 -192 -184 0
189 190 191 192 0
-189 317 0
-190 318 0
-317 318 0
-317 -190 0
-191 319 0
-318 319 0
-318 -191 0
-319 -192 0
-189 161 193 0
-189 161 185 0
-189 193 185 0
-190 162 194 0
-190 162 186 0
-190 194 186 0
-191 163 195 0
-191 163 187 0
-191 195 187 0
-192 164 196 0
-192 164 188 0
-192 196 188 0
-189 -161 -193 -185 0
-190 -162 -194 -186 0
-191 -163 -195 -187 0
-192 -164 -196 -188 0
-193 0
-194 0
-196 0
195 0
167 191 0
-167 -191 0